20180524 35 0 0 0
20170713 25 0 0 0
20160617 50 15000 0 0
20150717 30 0 0 0
20140529 24 0 0 0
20130619 40 0 0 0
20120704 20 0 0 0
20110513 50 5000 0 0
20100408 50 0 0 0
20090526 100 10000 0 0
20080407 200 0 0 0
20070829 0 10000 0 0
